Problem:    
Rows:       79
Columns:    120
Non-zeros:  590
Status:     OPTIMAL
Objective:  obj = 337750 (MAXimum)

   No.   Row name   St   Activity     Lower bound   Upper bound    Marginal
------ ------------ -- ------------- ------------- ------------- -------------
     1 r.6          NU           165                         165       108.485 
     2 r.7          B             55                         165 
     3 r.8          NU           165                         165       108.485 
     4 r.9          NU           165                         165         < eps
     5 r.10         NU           165                         165       108.485 
     6 r.11         B             55                         165 
     7 r.12         NU           165                         165       108.485 
     8 r.13         NU           165                         165       108.485 
     9 r.14         NU           165                         165       108.485 
    10 r.15         NU           165                         165         < eps
    11 r.16         B             65                         165 
    12 r.17         B            105                         165 
    13 r.18         NU           165                         165       108.485 
    14 r.19         B             55                         165 
    15 r.20         NU           165                         165       108.485 
    16 r.21         NU           165                         165       108.485 
    17 r.22         NU           165                         165       108.485 
    18 r.23         B             55                         165 
    19 r.26         B             30                          60 
    20 r.27         NU           200                         200         < eps
    21 r.28         B            200                         200 
    22 r.29         NU           200                         200         < eps
    23 r.30         NU           200                         200       149.167 
    24 r.31         NU           200                         200         < eps
    25 r.32         NU           200                         200         < eps
    26 r.33         B            200                         200 
    27 r.34         B             75                          75 
    28 r.35         B             75                          75 
    29 r.36         B             75                          75 
    30 r.37         B             75                          75 
    31 r.38         B             75                          75 
    32 r.39         B             75                          75 
    33 r.40         B             75                          75 
    34 r.43         NS             0             0             =           2.5 
    35 r.44         NS             0             0             =       3.33333 
    36 r.47         NS             0             0             =      0.457576 
    37 r.48         NS             0             0             =      0.457576 
    38 r.49         NS             0             0             =      0.457576 
    39 r.50         NS             0             0             =             1 
    40 r.51         NS             0             0             =      0.457576 
    41 r.52         NS             0             0             =      0.457576 
    42 r.53         NS             0             0             =      0.457576 
    43 r.56         B             35             0               
    44 r.57         B             10             0               
    45 r.60         B             30             0               
    46 r.62         B            200             0               
    47 r.63         B            200             0               
    48 r.64         B            200             0               
    49 r.65         B            200             0               
    50 r.66         B            200             0               
    51 r.67         B            200             0               
    52 r.68         B            200             0               
    53 r.69         B             75             0               
    54 r.70         B             75             0               
    55 r.71         B             75             0               
    56 r.72         B             75             0               
    57 r.73         B             75             0               
    58 r.74         B             75             0               
    59 r.75         B             75             0               
    60 r.78         NS             0             0             =       891.515 
    61 r.79         NS             0             0             =       891.515 
    62 r.80         NS             0             0             =       891.515 
    63 r.81         NS             0             0             =          1000 
    64 r.82         NS             0             0             =       891.515 
    65 r.83         NS             0             0             =       891.515 
    66 r.84         NS             0             0             =       891.515 
    67 r.87         NS             0             0             =       2.52778 
    68 r.90         NS             0             0             =      0.758333 
    69 r.91         NS             0             0             =      0.758333 
    70 r.92         NS             0             0             =      0.758333 
    71 r.93         NS             0             0             =      0.758333 
    72 r.94         NS             0             0             =      0.758333 
    73 r.95         NS             0             0             =      0.758333 
    74 r.96         NS             0             0             =      0.758333 
    75 r.99         NU           850                         850       151.667 
    76 r.102        B            485             0               
    77 r.103        B            495             0               
    78 r.104        B            495             0               
    79 r.105        B            435             0               

   No. Column name  St   Activity     Lower bound   Upper bound    Marginal
------ ------------ -- ------------- ------------- ------------- -------------
     1 G_2_1        NL             0             0                     -216.97 
     2 G_1_2        B            165             0               
     3 D_2_1        NL             0             0                     -216.97 
     4 D_1_2        NL             0             0                       < eps
     5 J_2_1        NL             0             0                     -216.97 
     6 J_1_2        NL             0             0                       < eps
     7 G_2_7        NL             0             0                       < eps
     8 G_7_2        B            160             0               
     9 D_2_7        B              5             0               
    10 D_7_2        NL             0             0                       < eps
    11 J_2_7        NL             0             0                       < eps
    12 J_7_2        NL             0             0                       < eps
    13 G_2_8        NL             0             0                     -216.97 
    14 G_8_2        B             95             0               
    15 D_2_8        NL             0             0                     -216.97 
    16 D_8_2        B             70             0               
    17 J_2_8        NL             0             0                     -216.97 
    18 J_8_2        B              0             0               
    19 G_5_1        NL             0             0                     -216.97 
    20 G_1_5        B             90             0               
    21 D_5_1        NL             0             0                     -216.97 
    22 D_1_5        B             75             0               
    23 J_5_1        NL             0             0                     -216.97 
    24 J_1_5        B              0             0               
    25 G_5_4        NL             0             0                     -216.97 
    26 G_4_5        B            165             0               
    27 D_5_4        NL             0             0                     -216.97 
    28 D_4_5        NL             0             0                       < eps
    29 J_5_4        NL             0             0                     -216.97 
    30 J_4_5        NL             0             0                       < eps
    31 G_5_6        NL             0             0                       < eps
    32 G_6_5        B            165             0               
    33 D_5_6        NL             0             0                       < eps
    34 D_6_5        NL             0             0                       < eps
    35 J_5_6        NL             0             0                       < eps
    36 J_6_5        NL             0             0                       < eps
    37 G_9_3        NL             0             0                     -216.97 
    38 G_3_9        B             90             0               
    39 D_9_3        NL             0             0                     -216.97 
    40 D_3_9        B             75             0               
    41 J_9_3        NL             0             0                     -216.97 
    42 J_3_9        B              0             0               
    43 G_9_4        NL             0             0                     -216.97 
    44 G_4_9        B             90             0               
    45 D_9_4        NL             0             0                     -216.97 
    46 D_4_9        B             75             0               
    47 J_9_4        NL             0             0                     -216.97 
    48 J_4_9        B              0             0               
    49 G_9_11       NL             0             0                     -216.97 
    50 G_11_9       B            165             0               
    51 D_9_11       NL             0             0                     -216.97 
    52 D_11_9       NL             0             0                       < eps
    53 J_9_11       NL             0             0                     -216.97 
    54 J_11_9       NL             0             0                       < eps
    55 G_10_6       NL             0             0                       < eps
    56 G_6_10       NL             0             0                       < eps
    57 D_10_6       NL             0             0                       < eps
    58 D_6_10       B             75             0               
    59 J_10_6       NL             0             0                       < eps
    60 J_6_10       B             30             0               
    61 G_10_11      NL             0             0                     -216.97 
    62 G_11_10      B             90             0               
    63 D_10_11      NL             0             0                     -216.97 
    64 D_11_10      B             75             0               
    65 J_10_11      NL             0             0                     -216.97 
    66 J_11_10      B              0             0               
    67 G_10_12      NL             0             0                     -216.97 
    68 G_12_10      B             90             0               
    69 D_10_12      NL             0             0                     -216.97 
    70 D_12_10      B             75             0               
    71 J_10_12      NL             0             0                     -216.97 
    72 J_12_10      B              0             0               
    73 G_1_3        NL             0             0                       < eps
    74 G_3_1        B             55             0               
    75 D_1_3        NL             0             0                       < eps
    76 D_3_1        NL             0             0                       < eps
    77 J_1_3        NL             0             0                       < eps
    78 J_3_1        NL             0             0                       < eps
    79 G_3_4        B             55             0               
    80 G_4_3        NL             0             0                       < eps
    81 D_3_4        NL             0             0                       < eps
    82 D_4_3        NL             0             0                       < eps
    83 J_3_4        NL             0             0                       < eps
    84 J_4_3        NL             0             0                       < eps
    85 G_6_7        B             35             0               
    86 G_7_6        NL             0             0                       < eps
    87 D_6_7        NL             0             0                       < eps
    88 D_7_6        NL             0             0                       < eps
    89 J_6_7        NL             0             0                       < eps
    90 J_7_6        B             30             0               
    91 G_7_8        NL             0             0                     -216.97 
    92 G_8_7        B            160             0               
    93 D_7_8        NL             0             0                     -216.97 
    94 D_8_7        B              5             0               
    95 J_7_8        NL             0             0                     -216.97 
    96 J_8_7        NL             0             0                       < eps
    97 G_8_12       NL             0             0                       < eps
    98 G_12_8       B             55             0               
    99 D_8_12       NL             0             0                       < eps
   100 D_12_8       NL             0             0                       < eps
   101 J_8_12       NL             0             0                       < eps
   102 J_12_8       NL             0             0                       < eps
   103 G_11_12      NL             0             0                       < eps
   104 G_12_11      B             55             0               
   105 D_11_12      NL             0             0                       < eps
   106 D_12_11      NL             0             0                       < eps
   107 J_11_12      NL             0             0                       < eps
   108 J_12_11      NL             0             0                       < eps
   109 E_7          B            150             0               
   110 E_1          B            100             0               
   111 E_3          B            100             0               
   112 E_4          B            100             0               
   113 E_6          B            100             0               
   114 E_8          B            100             0               
   115 E_11         B            100             0               
   116 E_12         B            100             0               
   117 E_2          NL             0             0                    -151.667 
   118 E_5          NL             0             0                    -151.667 
   119 E_9          NL             0             0                    -151.667 
   120 E_10         NL             0             0                    -151.667 

Karush-Kuhn-Tucker optimality conditions:

KKT.PE: max.abs.err = 1.09e-11 on row 34
        max.rel.err = 1.70e-15 on row 35
        High quality

KKT.PB: max.abs.err = 2.84e-14 on row 26
        max.rel.err = 3.74e-16 on row 31
        High quality

KKT.DE: max.abs.err = 4.55e-13 on column 90
        max.rel.err = 9.44e-16 on column 8
        High quality

KKT.DB: max.abs.err = 8.53e-13 on column 7
        max.rel.err = 8.53e-13 on column 7
        High quality

End of output
